CPXPARAM_MIP_Strategy_SubAlgorithm#P45#2#2.981031#0.999990
CPXPARAM_MIP_Strategy_SubAlgorithm#P45#3#2.947647#0.988792
CPXPARAM_MIP_Strategy_SubAlgorithm#P45#4#2.980011#0.999648
CPXPARAM_MIP_Strategy_SubAlgorithm#P45#5#2.981060#1.000000
